%nprocshared=16
%mem=15GB
%chk=ovalene-ground-opt-freq-disp.chk
#p freq=(readfc,fcht,savenm,readfcht,emission) nosymm geom=allcheck

MaxInt=300 SPECHWHM=4 PRTINT=1.D-4 SPECRES=3.0 PrtMat=12

ovalene-excited-3-opt-freq-disp.chk





