%nprocshared=16
%mem=20GB
%chk=ovalene-ground.chk
#p geom=AllCheck Freq=(ReadFC, FCHT, SaveNM, ReadFCHT) NoSymm

MaxInt=300 SPECHWHM=4 PRTINT=1.D-4 SPECRES=3.0 PrtMat=12

ovalene-excited.chk

