%mem=20GB
%nprocshared=32
# opt=tight td=(nstates=10,root=6)
b3lyp/6-311++g(2d,2p) geom=connectivity empiricaldispersion=gd3bj

Ovalene excited state optimization + freq with dispersion

0 1
 C                  0.00000000    2.45108999    0.71361004
 C                  0.00000000    1.23145152    1.41802346
 C                  0.00000000    0.00000000    0.70854537
 C                  0.00000000    0.00000000   -0.70854537
 C                  0.00000000    1.23145152   -1.41802346
 C                  0.00000000    2.45108999   -0.71361004
 C                  0.00000000   -1.23145152    1.41802346
 C                  0.00000000   -1.23145152   -1.41802346
 C                  0.00000000   -2.45108999   -0.71361004
 C                  0.00000000   -2.45108999    0.71361004
 C                  0.00000000   -3.69199174   -1.42404164
 C                  0.00000000   -3.65886742   -2.84755606
 C                  0.00000000   -2.47491203   -3.53435079
 C                  0.00000000   -1.22515240   -2.85657076
 C                  0.00000000    0.00000000   -3.53516844
 C                  0.00000000    1.22515240   -2.85657076
 H                  0.00000000    0.00000000   -4.61740455
 H                  0.00000000   -4.59721705   -3.38556922
 H                  0.00000000   -2.47569268   -4.61600776
 C                  0.00000000    1.22515240    2.85657076
 C                  0.00000000    0.00000000    3.53516844
 C                  0.00000000   -1.22515240    2.85657076
 H                  0.00000000    0.00000000    4.61740455
 C                  0.00000000   -2.47491203    3.53435079
 C                  0.00000000   -3.65886742    2.84755606
 C                  0.00000000   -3.69199174    1.42404164
 H                  0.00000000   -2.47569268    4.61600776
 H                  0.00000000   -4.59721705    3.38556922
 C                  0.00000000   -4.89502201   -0.69325612
 H                  0.00000000   -5.83296259   -1.23161436
 C                  0.00000000   -4.89502201    0.69325612
 H                  0.00000000   -5.83296259    1.23161436
 C                  0.00000000    2.47491203   -3.53435079
 C                  0.00000000    3.65886742   -2.84755606
 H                  0.00000000    4.59721705   -3.38556922
 C                  0.00000000    3.69199174   -1.42404164
 H                  0.00000000    2.47569268   -4.61600776
 C                  0.00000000    4.89502201   -0.69325612
 H                  0.00000000    5.83296259   -1.23161436
 C                  0.00000000    3.69199174    1.42404164
 C                  0.00000000    2.47491203    3.53435079
 C                  0.00000000    3.65886742    2.84755606
 H                  0.00000000    4.59721705    3.38556922
 C                  0.00000000    4.89502201    0.69325612
 H                  0.00000000    5.83296259    1.23161436
 H                  0.00000000    2.47569268    4.61600776

 1 2 1.5 6 1.5 40 1.5
 2 3 1.5 20 1.5
 3 4 1.5 7 1.5
 4 5 1.5 8 1.5
 5 6 1.5 16 1.5
 6 36 1.5
 7 10 1.5 22 1.5
 8 9 1.5 14 1.5
 9 10 1.5 11 1.5
 10 26 1.5
 11 12 1.5 29 1.5
 12 13 2.0 18 1.0
 13 14 1.5 19 1.0
 14 15 1.5
 15 16 1.5 17 1.0
 16 33 1.5
 17
 18
 19
 20 21 1.5 41 1.5
 21 22 1.5 23 1.0
 22 24 1.5
 23
 24 25 2.0 27 1.0
 25 26 1.5 28 1.0
 26 31 1.5
 27
 28
 29 30 1.0 31 2.0
 30
 31 32 1.0
 32
 33 34 2.0 37 1.0
 34 35 1.0 36 1.5
 35
 36 38 1.5
 37
 38 39 1.0 44 2.0
 39
 40 42 1.5 44 1.5
 41 42 2.0 46 1.0
 42 43 1.0
 43
 44 45 1.0
 45
 46

